200
1000
266
264
264
264
264
263
262
262
258
258
256
255
254
252
252
250
250
249
248
248
247
245
243
241
237
236
234
233
229
229
229
229
229
227
227
227
226
226
225
223
223
220
220
219
219
219
216
212
209
208
207
206
204
203
202
197
197
196
193
191
190
190
188
187
185
183
182
182
178
177
174
173
171
170
170
169
169
166
165
162
161
161
161
159
156
155
153
150
150
148
148
147
147
147
146
144
143
143
142
139
138
138
137
137
137
133
133
132
132
128
128
126
124
122
121
121
120
117
116
115
115
115
115
114
111
111
107
107
106
105
103
100
100
100
98
98
96
96
93
91
91
90
89
87
83
79
79
79
78
77
75
69
69
67
67
67
67
64
61
61
58
56
55
54
53
52
51
51
51
50
49
48
46
46
46
46
45
44
43
42
41
37
36
36
36
36
35
34
33
31
30
29
28
26
25
23
23
21
18
17
